Problem:    
Rows:       163
Columns:    57 (42 integer, 42 binary)
Non-zeros:  496
Status:     INTEGER OPTIMAL
Objective:  value = 4.156687 (MINimum)

   No.   Row name        Activity     Lower bound   Upper bound
------ ------------    ------------- ------------- -------------
     1 r.5                   1004.16             0               
     2 r.6                  -997.952      -998.556               
     3 r.7                   4.15669             0               
     4 r.8                   3.23869       -995.89               
     5 r.9                   1004.16             0               
     6 r.10                 -996.761      -998.809               
     7 r.11                  4.15669             0               
     8 r.12                  3.23869      -996.533               
     9 r.13                  4.15669             0               
    10 r.14                  3.23869      -999.001               
    11 r.15                  1004.16             0               
    12 r.16                 -996.803      -997.297               
    13 r.17                  4.15669             0               
    14 r.18                 0.604156      -999.866               
    15 r.19                  1004.16             0               
    16 r.20                 -999.507      -999.722               
    17 r.21                  1004.16             0               
    18 r.22                 -999.396      -999.611               
    19 r.23                  4.15669             0               
    20 r.24                 -998.943      -999.158               
    21 r.25                  1004.16             0               
    22 r.26                 -999.785      -999.785               
    23 r.27                  4.15669             0               
    24 r.28                   0.2152      -999.469               
    25 r.29                  1004.16             0               
    26 r.30                 -995.843      -999.082               
    27 r.31                  4.15669             0               
    28 r.32                  4.15669       -997.09               
    29 r.33                        1             1             = 
    30 r.34                        1             1             = 
    31 r.35                        1             1             = 
    32 r.36                        1             1             = 
    33 r.37                        1             1             = 
    34 r.38                        1             1             = 
    35 r.39                        1             1             = 
    36 r.40                        2             2               
    37 r.41                       -2         -1001               
    38 r.42                 -998.809      -998.809               
    39 r.43                     1000             2               
    40 r.44                    -1000         -1001               
    41 r.45                     2000      -996.533               
    42 r.46                     1001             2               
    43 r.47                    -1001         -1001               
    44 r.48                  2001.19      -999.001               
    45 r.49                     1001             2               
    46 r.50                    -1001         -1001               
    47 r.51                  1999.96      -997.297               
    48 r.52                 -998.556      -998.556               
    49 r.53                  2.63453       -995.89               
    50 r.54                 -998.446      -998.556               
    51 r.55                   2.7452       -995.89               
    52 r.56                 -998.556      -998.556               
    53 r.57                  2.63453       -995.89               
    54 r.58                 0.990745      -998.556               
    55 r.59                  1002.18       -995.89               
    56 r.60                 -997.891      -999.082               
    57 r.61                  2.10893       -997.09               
    58 r.62                 -999.082      -999.082               
    59 r.63                    0.918       -997.09               
    60 r.64                        2             2               
    61 r.65                       -2         -1001               
    62 r.66                  998.809        1.4436               
    63 r.67                     1000             2               
    64 r.68                    -1000         -1001               
    65 r.69                     2000       4.11026               
    66 r.70                     1001             2               
    67 r.71                    -1001         -1001               
    68 r.72                     2000      -999.001               
    69 r.73                     1001             2               
    70 r.74                    -1001         -1001               
    71 r.75                  1999.96      -997.297               
    72 r.76                 -997.365      -998.809               
    73 r.77                  2.63453      -996.533               
    74 r.78                 -997.255      -998.809               
    75 r.79                   2.7452      -996.533               
    76 r.80                        2             2               
    77 r.81                       -2         -1001               
    78 r.82                 -2.63453      -999.611               
    79 r.83                     1000             2               
    80 r.84                    -1000         -1001               
    81 r.85                  997.818      -999.158               
    82 r.86                 -996.977      -998.809               
    83 r.87                  3.02349      -996.533               
    84 r.88                 -996.977      -998.809               
    85 r.89                  3.02349      -996.533               
    86 r.90                 -999.082      -999.082               
    87 r.91                    0.918       -997.09               
    88 r.92                 -999.082      -999.082               
    89 r.93                    0.918       -997.09               
    90 r.94                     1001             2               
    91 r.95                    -1001         -1001               
    92 r.96                  1998.81        1.4436               
    93 r.97                     1001             2               
    94 r.98                    -1001         -1001               
    95 r.99                  2000.04       4.11026               
    96 r.100                    1001             2               
    97 r.101                   -1001         -1001               
    98 r.102                    2000       1.19093               
    99 r.103                    1001             2               
   100 r.104                   -1001         -1001               
   101 r.105                 2000.04       3.46656               
   102 r.106                    1000             2               
   103 r.107                   -1000         -1001               
   104 r.108                 1997.37      -999.866               
   105 r.109                       2             2               
   106 r.110                      -2         -1001               
   107 r.111                -2.70344      -999.722               
   108 r.112                    1001             2               
   109 r.113                   -1001         -1001               
   110 r.114                 1997.37      -999.611               
   111 r.115                    1001             2               
   112 r.116                   -1001         -1001               
   113 r.117                  997.86      -999.158               
   114 r.118                 3.02349      -999.001               
   115 r.119                -997.018      -997.297               
   116 r.120                 3.02349      -999.001               
   117 r.121                -997.018      -997.297               
   118 r.122                -999.082      -999.082               
   119 r.123                   0.918       -997.09               
   120 r.124                 -999.04      -999.082               
   121 r.125                0.959763       -997.09               
   122 r.126                    1000             2               
   123 r.127                   -1000         -1001               
   124 r.128                 2002.63      0.998578               
   125 r.129                       2             2               
   126 r.130                      -2         -1001               
   127 r.131                 2.70344       2.70344               
   128 r.132                    1001             2               
   129 r.133                   -1001         -1001               
   130 r.134                    2000      -999.611               
   131 r.135                    1001             2               
   132 r.136                   -1001         -1001               
   133 r.137                 1000.56      -999.158               
   134 r.138                0.388956      -999.866               
   135 r.139                -999.722      -999.722               
   136 r.140                0.388956      -999.866               
   137 r.141                -999.722      -999.722               
   138 r.142                       2             2               
   139 r.143                      -2         -1001               
   140 r.144                 2.63453       1.19093               
   141 r.145                    1000             2               
   142 r.146                   -1000         -1001               
   143 r.147                 3002.18       3.46656               
   144 r.148                    1001             2               
   145 r.149                   -1001         -1001               
   146 r.150                 2002.63      0.998578               
   147 r.151                    1001             2               
   148 r.152                   -1001         -1001               
   149 r.153                 3002.14       2.70344               
   150 r.154                    1001             2               
   151 r.155                   -1001         -1001               
   152 r.156                    2000        0.1339               
   153 r.157                    1001             2               
   154 r.158                   -1001         -1001               
   155 r.159                 2999.44      0.278282               
   156 r.160                -999.611      -999.611               
   157 r.161                -999.158      -999.158               
   158 r.162                -999.611      -999.611               
   159 r.163                -999.158      -999.158               
   160 r.164                -996.447      -999.082               
   161 r.165                 3.55253       -997.09               
   162 r.166                 3.09968      -999.082               
   163 r.167                  1003.1       -997.09               

   No. Column name       Activity     Lower bound   Upper bound
------ ------------    ------------- ------------- -------------
     1 tt                    4.15669             0               
     2 s_1_1        *              1             0             1 
     3 t_1_1                 2.10893             0               
     4 s_1_7        *              1             0             1 
     5 s_2_1        *              0             0             1 
     6 t_2_1                   0.918             0               
     7 s_2_7        *              0             0             1 
     8 s_1_2        *              1             0             1 
     9 t_1_2                   0.918             0               
    10 s_2_2        *              0             0             1 
    11 t_2_2                   0.918             0               
    12 s_1_3        *              0             0             1 
    13 t_1_3                   0.918             0               
    14 s_2_3        *              1             0             1 
    15 t_2_3                0.959763             0               
    16 s_1_4        *              0             0             1 
    17 t_1_4                 3.55253             0               
    18 s_2_4        *              1             0             1 
    19 t_2_4                  3.6632             0               
    20 s_1_5        *              1             0             1 
    21 t_1_5                 3.55253             0               
    22 s_2_5        *              0             0             1 
    23 t_2_5                  1003.1             0               
    24 s_1_6        *              1             0             1 
    25 t_1_6                 3.94149             0               
    26 s_2_6        *              0             0             1 
    27 t_2_6                 3.94149             0               
    28 t_1_7                       0             0               
    29 t_2_7                       0             0               
    30 r_1_1_2      *              0             0             1 
    31 u_1_1_2      *              1             0             1 
    32 r_2_1_2      *              1             0             1 
    33 u_2_1_2      *              0             0             1 
    34 r_1_1_3      *              1             0             1 
    35 u_1_1_3      *              0             0             1 
    36 r_2_1_3      *              1             0             1 
    37 u_2_1_3      *              0             0             1 
    38 r_1_2_3      *              1             0             1 
    39 u_1_2_3      *              0             0             1 
    40 r_2_2_3      *              1             0             1 
    41 u_2_2_3      *              0             0             1 
    42 r_1_2_5      *              0             0             1 
    43 u_1_2_5      *              0             0             1 
    44 r_2_2_5      *              1             0             1 
    45 u_2_2_5      *              0             0             1 
    46 r_1_3_4      *              1             0             1 
    47 u_1_3_4      *              0             0             1 
    48 r_2_3_4      *              0             0             1 
    49 u_2_3_4      *              0             0             1 
    50 r_1_3_5      *              1             0             1 
    51 u_1_3_5      *              0             0             1 
    52 r_2_3_5      *              1             0             1 
    53 u_2_3_5      *              0             0             1 
    54 r_1_4_5      *              1             0             1 
    55 u_1_4_5      *              0             0             1 
    56 r_2_4_5      *              1             0             1 
    57 u_2_4_5      *              0             0             1 

Integer feasibility conditions:

KKT.PE: max.abs.err = 4.55e-13 on row 143
        max.rel.err = 7.57e-17 on row 143
        High quality

KKT.PB: max.abs.err = 0.00e+00 on row 0
        max.rel.err = 0.00e+00 on row 0
        High quality

End of output
